p cnf 1627
-21 -511
-22 -514
-23 -517
-24 -520
-25 -523
-26 -526
-27 -529
-28 -532
-29 -535
-30 -538
-31 -541
-32 -544
-33 -547
-34 -550
-35 -553
-36 -556
-37 -559
-38 -562
-39 -565
-40 -568
-41 569
-42 570
-43 571
-44 572
-45 573
-46 574
-47 575
-48 576
-49 577
-50 578
-51 579
-52 580
-53 581
-54 582
-55 583
-56 584
-57 -22
-57 -23
22 23 57
-58 -24
-58 -25
24 25 58
-59 -26
-59 -27
26 27 59
-60 -28
-60 -29
28 29 60
-61 -30
-61 -31
30 31 61
-62 -32
-62 -33
32 33 62
-63 -34
-63 -35
34 35 63
-64 -36
-64 -37
36 37 64
-65 -38
-65 -39
38 39 65
-66 -40
-66 -41
40 41 66
-67 -42
-67 -43
42 43 67
-68 -44
-68 -45
44 45 68
-69 -46
-69 -47
46 47 69
-70 -48
-70 -49
48 49 70
-71 -50
-71 -51
50 51 71
-72 -52
-72 -53
52 53 72
-73 -54
-73 -55
54 55 73
-74 57
-74 58
-57 -58 74
-75 59
-75 60
-59 -60 75
-76 61
-76 62
-61 -62 76
-77 63
-77 64
-63 -64 77
-78 65
-78 66
-65 -66 78
-79 67
-79 68
-67 -68 79
-80 69
-80 70
-69 -70 80
-81 71
-81 72
-71 -72 81
-82 -56
-82 73
56 -73 82
-83 74
-83 75
-74 -75 83
-84 76
-84 77
-76 -77 84
-85 78
-85 79
-78 -79 85
-86 80
-86 81
-80 -81 86
-87 83
-87 84
-83 -84 87
-88 85
-88 86
-85 -86 88
-89 87
-89 88
-87 -88 89
-90 82
-90 89
-82 -89 90
-91 -21
-91 22
21 -22 91
-92 21
-92 -22
-21 22 92
-93 -91
-93 -92
91 92 93
-94 21
-94 22
-21 -22 94
-95 -21
-95 -93
21 93 95
-96 21
-96 93
-21 -93 96
-97 -95
-97 -96
95 96 97
-98 21
-98 -93
-21 93 98
-99 -94
-99 -98
94 98 99
-100 -22
-100 23
22 -23 100
-101 22
-101 -23
-22 23 101
-102 -100
-102 -101
100 101 102
-103 22
-103 23
-22 -23 103
-104 99
-104 -102
-99 102 104
-105 -99
-105 102
99 -102 105
-106 -104
-106 -105
104 105 106
-107 -99
-107 -102
99 102 107
-108 -103
-108 -107
103 107 108
-109 -23
-109 24
23 -24 109
-110 23
-110 -24
-23 24 110
-111 -109
-111 -110
109 110 111
-112 23
-112 24
-23 -24 112
-113 108
-113 -111
-108 111 113
-114 -108
-114 111
108 -111 114
-115 -113
-115 -114
113 114 115
-116 -108
-116 -111
108 111 116
-117 -112
-117 -116
112 116 117
-118 -24
-118 25
24 -25 118
-119 24
-119 -25
-24 25 119
-120 -118
-120 -119
118 119 120
-121 24
-121 25
-24 -25 121
-122 117
-122 -120
-117 120 122
-123 -117
-123 120
117 -120 123
-124 -122
-124 -123
122 123 124
-125 -117
-125 -120
117 120 125
-126 -121
-126 -125
121 125 126
-127 -25
-127 26
25 -26 127
-128 25
-128 -26
-25 26 128
-129 -127
-129 -128
127 128 129
-130 25
-130 26
-25 -26 130
-131 126
-131 -129
-126 129 131
-132 -126
-132 129
126 -129 132
-133 -131
-133 -132
131 132 133
-134 -126
-134 -129
126 129 134
-135 -130
-135 -134
130 134 135
-136 -26
-136 27
26 -27 136
-137 26
-137 -27
-26 27 137
-138 -136
-138 -137
136 137 138
-139 26
-139 27
-26 -27 139
-140 135
-140 -138
-135 138 140
-141 -135
-141 138
135 -138 141
-142 -140
-142 -141
140 141 142
-143 -135
-143 -138
135 138 143
-144 -139
-144 -143
139 143 144
-145 -27
-145 28
27 -28 145
-146 27
-146 -28
-27 28 146
-147 -145
-147 -146
145 146 147
-148 27
-148 28
-27 -28 148
-149 144
-149 -147
-144 147 149
-150 -144
-150 147
144 -147 150
-151 -149
-151 -150
149 150 151
-152 -144
-152 -147
144 147 152
-153 -148
-153 -152
148 152 153
-154 -28
-154 29
28 -29 154
-155 28
-155 -29
-28 29 155
-156 -154
-156 -155
154 155 156
-157 28
-157 29
-28 -29 157
-158 153
-158 -156
-153 156 158
-159 -153
-159 156
153 -156 159
-160 -158
-160 -159
158 159 160
-161 -153
-161 -156
153 156 161
-162 -157
-162 -161
157 161 162
-163 -29
-163 30
29 -30 163
-164 29
-164 -30
-29 30 164
-165 -163
-165 -164
163 164 165
-166 29
-166 30
-29 -30 166
-167 162
-167 -165
-162 165 167
-168 -162
-168 165
162 -165 168
-169 -167
-169 -168
167 168 169
-170 -162
-170 -165
162 165 170
-171 -166
-171 -170
166 170 171
-172 -30
-172 31
30 -31 172
-173 30
-173 -31
-30 31 173
-174 -172
-174 -173
172 173 174
-175 30
-175 31
-30 -31 175
-176 171
-176 -174
-171 174 176
-177 -171
-177 174
171 -174 177
-178 -176
-178 -177
176 177 178
-179 -171
-179 -174
171 174 179
-180 -175
-180 -179
175 179 180
-181 -31
-181 32
31 -32 181
-182 31
-182 -32
-31 32 182
-183 -181
-183 -182
181 182 183
-184 31
-184 32
-31 -32 184
-185 180
-185 -183
-180 183 185
-186 -180
-186 183
180 -183 186
-187 -185
-187 -186
185 186 187
-188 -180
-188 -183
180 183 188
-189 -184
-189 -188
184 188 189
-190 -32
-190 33
32 -33 190
-191 32
-191 -33
-32 33 191
-192 -190
-192 -191
190 191 192
-193 32
-193 33
-32 -33 193
-194 189
-194 -192
-189 192 194
-195 -189
-195 192
189 -192 195
-196 -194
-196 -195
194 195 196
-197 -189
-197 -192
189 192 197
-198 -193
-198 -197
193 197 198
-199 -33
-199 34
33 -34 199
-200 33
-200 -34
-33 34 200
-201 -199
-201 -200
199 200 201
-202 33
-202 34
-33 -34 202
-203 198
-203 -201
-198 201 203
-204 -198
-204 201
198 -201 204
-205 -203
-205 -204
203 204 205
-206 -198
-206 -201
198 201 206
-207 -202
-207 -206
202 206 207
-208 -34
-208 35
34 -35 208
-209 34
-209 -35
-34 35 209
-210 -208
-210 -209
208 209 210
-211 34
-211 35
-34 -35 211
-212 207
-212 -210
-207 210 212
-213 -207
-213 210
207 -210 213
-214 -212
-214 -213
212 213 214
-215 -207
-215 -210
207 210 215
-216 -211
-216 -215
211 215 216
-217 -35
-217 36
35 -36 217
-218 35
-218 -36
-35 36 218
-219 -217
-219 -218
217 218 219
-220 35
-220 36
-35 -36 220
-221 216
-221 -219
-216 219 221
-222 -216
-222 219
216 -219 222
-223 -221
-223 -222
221 222 223
-224 -216
-224 -219
216 219 224
-225 -220
-225 -224
220 224 225
-226 -36
-226 37
36 -37 226
-227 36
-227 -37
-36 37 227
-228 -226
-228 -227
226 227 228
-229 36
-229 37
-36 -37 229
-230 225
-230 -228
-225 228 230
-231 -225
-231 228
225 -228 231
-232 -230
-232 -231
230 231 232
-233 -225
-233 -228
225 228 233
-234 -229
-234 -233
229 233 234
-235 -37
-235 38
37 -38 235
-236 37
-236 -38
-37 38 236
-237 -235
-237 -236
235 236 237
-238 37
-238 38
-37 -38 238
-239 234
-239 -237
-234 237 239
-240 -234
-240 237
234 -237 240
-241 -239
-241 -240
239 240 241
-242 -234
-242 -237
234 237 242
-243 -238
-243 -242
238 242 243
-244 -38
-244 39
38 -39 244
-245 38
-245 -39
-38 39 245
-246 -244
-246 -245
244 245 246
-247 38
-247 39
-38 -39 247
-248 243
-248 -246
-243 246 248
-249 -243
-249 246
243 -246 249
-250 -248
-250 -249
248 249 250
-251 -243
-251 -246
243 246 251
-252 -247
-252 -251
247 251 252
-253 -39
-253 40
39 -40 253
-254 39
-254 -40
-39 40 254
-255 -253
-255 -254
253 254 255
-256 39
-256 40
-39 -40 256
-257 252
-257 -255
-252 255 257
-258 -252
-258 255
252 -255 258
-259 -257
-259 -258
257 258 259
-260 -252
-260 -255
252 255 260
-261 -256
-261 -260
256 260 261
-262 -40
-262 41
40 -41 262
-263 40
-263 -41
-40 41 263
-264 -262
-264 -263
262 263 264
-265 40
-265 41
-40 -41 265
-266 261
-266 -264
-261 264 266
-267 -261
-267 264
261 -264 267
-268 -266
-268 -267
266 267 268
-269 -261
-269 -264
261 264 269
-270 -265
-270 -269
265 269 270
-271 -41
-271 42
41 -42 271
-272 41
-272 -42
-41 42 272
-273 -271
-273 -272
271 272 273
-274 41
-274 42
-41 -42 274
-275 270
-275 -273
-270 273 275
-276 -270
-276 273
270 -273 276
-277 -275
-277 -276
275 276 277
-278 -270
-278 -273
270 273 278
-279 -274
-279 -278
274 278 279
-280 -42
-280 43
42 -43 280
-281 42
-281 -43
-42 43 281
-282 -280
-282 -281
280 281 282
-283 42
-283 43
-42 -43 283
-284 279
-284 -282
-279 282 284
-285 -279
-285 282
279 -282 285
-286 -284
-286 -285
284 285 286
-287 -279
-287 -282
279 282 287
-288 -283
-288 -287
283 287 288
-289 -43
-289 44
43 -44 289
-290 43
-290 -44
-43 44 290
-291 -289
-291 -290
289 290 291
-292 43
-292 44
-43 -44 292
-293 288
-293 -291
-288 291 293
-294 -288
-294 291
288 -291 294
-295 -293
-295 -294
293 294 295
-296 -288
-296 -291
288 291 296
-297 -292
-297 -296
292 296 297
-298 -44
-298 45
44 -45 298
-299 44
-299 -45
-44 45 299
-300 -298
-300 -299
298 299 300
-301 44
-301 45
-44 -45 301
-302 297
-302 -300
-297 300 302
-303 -297
-303 300
297 -300 303
-304 -302
-304 -303
302 303 304
-305 -297
-305 -300
297 300 305
-306 -301
-306 -305
301 305 306
-307 -45
-307 46
45 -46 307
-308 45
-308 -46
-45 46 308
-309 -307
-309 -308
307 308 309
-310 45
-310 46
-45 -46 310
-311 306
-311 -309
-306 309 311
-312 -306
-312 309
306 -309 312
-313 -311
-313 -312
311 312 313
-314 -306
-314 -309
306 309 314
-315 -310
-315 -314
310 314 315
-316 -46
-316 47
46 -47 316
-317 46
-317 -47
-46 47 317
-318 -316
-318 -317
316 317 318
-319 46
-319 47
-46 -47 319
-320 315
-320 -318
-315 318 320
-321 -315
-321 318
315 -318 321
-322 -320
-322 -321
320 321 322
-323 -315
-323 -318
315 318 323
-324 -319
-324 -323
319 323 324
-325 -47
-325 48
47 -48 325
-326 47
-326 -48
-47 48 326
-327 -325
-327 -326
325 326 327
-328 47
-328 48
-47 -48 328
-329 324
-329 -327
-324 327 329
-330 -324
-330 327
324 -327 330
-331 -329
-331 -330
329 330 331
-332 -324
-332 -327
324 327 332
-333 -328
-333 -332
328 332 333
-334 -48
-334 49
48 -49 334
-335 48
-335 -49
-48 49 335
-336 -334
-336 -335
334 335 336
-337 48
-337 49
-48 -49 337
-338 333
-338 -336
-333 336 338
-339 -333
-339 336
333 -336 339
-340 -338
-340 -339
338 339 340
-341 -333
-341 -336
333 336 341
-342 -337
-342 -341
337 341 342
-343 -49
-343 50
49 -50 343
-344 49
-344 -50
-49 50 344
-345 -343
-345 -344
343 344 345
-346 49
-346 50
-49 -50 346
-347 342
-347 -345
-342 345 347
-348 -342
-348 345
342 -345 348
-349 -347
-349 -348
347 348 349
-350 -342
-350 -345
342 345 350
-351 -346
-351 -350
346 350 351
-352 -50
-352 51
50 -51 352
-353 50
-353 -51
-50 51 353
-354 -352
-354 -353
352 353 354
-355 50
-355 51
-50 -51 355
-356 351
-356 -354
-351 354 356
-357 -351
-357 354
351 -354 357
-358 -356
-358 -357
356 357 358
-359 -351
-359 -354
351 354 359
-360 -355
-360 -359
355 359 360
-361 -51
-361 52
51 -52 361
-362 51
-362 -52
-51 52 362
-363 -361
-363 -362
361 362 363
-364 51
-364 52
-51 -52 364
-365 360
-365 -363
-360 363 365
-366 -360
-366 363
360 -363 366
-367 -365
-367 -366
365 366 367
-368 -360
-368 -363
360 363 368
-369 -364
-369 -368
364 368 369
-370 -52
-370 53
52 -53 370
-371 52
-371 -53
-52 53 371
-372 -370
-372 -371
370 371 372
-373 52
-373 53
-52 -53 373
-374 369
-374 -372
-369 372 374
-375 -369
-375 372
369 -372 375
-376 -374
-376 -375
374 375 376
-377 -369
-377 -372
369 372 377
-378 -373
-378 -377
373 377 378
-379 -53
-379 54
53 -54 379
-380 53
-380 -54
-53 54 380
-381 -379
-381 -380
379 380 381
-382 53
-382 54
-53 -54 382
-383 378
-383 -381
-378 381 383
-384 -378
-384 381
378 -381 384
-385 -383
-385 -384
383 384 385
-386 -378
-386 -381
378 381 386
-387 -382
-387 -386
382 386 387
-388 -54
-388 55
54 -55 388
-389 54
-389 -55
-54 55 389
-390 -388
-390 -389
388 389 390
-391 54
-391 55
-54 -55 391
-392 387
-392 -390
-387 390 392
-393 -387
-393 390
387 -390 393
-394 -392
-394 -393
392 393 394
-395 -387
-395 -390
387 390 395
-396 -391
-396 -395
391 395 396
-397 -55
-397 56
55 -56 397
-398 55
-398 -56
-55 56 398
-399 -397
-399 -398
397 398 399
-400 55
-400 56
-55 -56 400
-401 396
-401 -399
-396 399 401
-402 -396
-402 399
396 -399 402
-403 -401
-403 -402
401 402 403
-404 -396
-404 -399
396 399 404
-405 -400
-405 -404
400 404 405
-406 21
-406 -97
-21 97 406
-407 -21
-407 23
21 -23 407
-408 -406
-408 -407
406 407 408
-409 21
-409 -106
-21 106 409
-410 -21
-410 24
21 -24 410
-411 -409
-411 -410
409 410 411
-412 21
-412 -115
-21 115 412
-413 -21
-413 25
21 -25 413
-414 -412
-414 -413
412 413 414
-415 21
-415 -124
-21 124 415
-416 -21
-416 26
21 -26 416
-417 -415
-417 -416
415 416 417
-418 21
-418 -133
-21 133 418
-419 -21
-419 27
21 -27 419
-420 -418
-420 -419
418 419 420
-421 21
-421 -142
-21 142 421
-422 -21
-422 28
21 -28 422
-423 -421
-423 -422
421 422 423
-424 21
-424 -151
-21 151 424
-425 -21
-425 29
21 -29 425
-426 -424
-426 -425
424 425 426
-427 21
-427 -160
-21 160 427
-428 -21
-428 30
21 -30 428
-429 -427
-429 -428
427 428 429
-430 21
-430 -169
-21 169 430
-431 -21
-431 31
21 -31 431
-432 -430
-432 -431
430 431 432
-433 21
-433 -178
-21 178 433
-434 -21
-434 32
21 -32 434
-435 -433
-435 -434
433 434 435
-436 21
-436 -187
-21 187 436
-437 -21
-437 33
21 -33 437
-438 -436
-438 -437
436 437 438
-439 21
-439 -196
-21 196 439
-440 -21
-440 34
21 -34 440
-441 -439
-441 -440
439 440 441
-442 21
-442 -205
-21 205 442
-443 -21
-443 35
21 -35 443
-444 -442
-444 -443
442 443 444
-445 21
-445 -214
-21 214 445
-446 -21
-446 36
21 -36 446
-447 -445
-447 -446
445 446 447
-448 21
-448 -223
-21 223 448
-449 -21
-449 37
21 -37 449
-450 -448
-450 -449
448 449 450
-451 21
-451 -232
-21 232 451
-452 -21
-452 38
21 -38 452
-453 -451
-453 -452
451 452 453
-454 21
-454 -241
-21 241 454
-455 -21
-455 39
21 -39 455
-456 -454
-456 -455
454 455 456
-457 21
-457 -250
-21 250 457
-458 -21
-458 40
21 -40 458
-459 -457
-459 -458
457 458 459
-460 21
-460 -259
-21 259 460
-461 -21
-461 41
21 -41 461
-462 -460
-462 -461
460 461 462
-463 21
-463 -268
-21 268 463
-464 -21
-464 42
21 -42 464
-465 -463
-465 -464
463 464 465
-466 21
-466 -277
-21 277 466
-467 -21
-467 43
21 -43 467
-468 -466
-468 -467
466 467 468
-469 21
-469 -286
-21 286 469
-470 -21
-470 44
21 -44 470
-471 -469
-471 -470
469 470 471
-472 21
-472 -295
-21 295 472
-473 -21
-473 45
21 -45 473
-474 -472
-474 -473
472 473 474
-475 21
-475 -304
-21 304 475
-476 -21
-476 46
21 -46 476
-477 -475
-477 -476
475 476 477
-478 21
-478 -313
-21 313 478
-479 -21
-479 47
21 -47 479
-480 -478
-480 -479
478 479 480
-481 21
-481 -322
-21 322 481
-482 -21
-482 48
21 -48 482
-483 -481
-483 -482
481 482 483
-484 21
-484 -331
-21 331 484
-485 -21
-485 49
21 -49 485
-486 -484
-486 -485
484 485 486
-487 21
-487 -340
-21 340 487
-488 -21
-488 50
21 -50 488
-489 -487
-489 -488
487 488 489
-490 21
-490 -349
-21 349 490
-491 -21
-491 51
21 -51 491
-492 -490
-492 -491
490 491 492
-493 21
-493 -358
-21 358 493
-494 -21
-494 52
21 -52 494
-495 -493
-495 -494
493 494 495
-496 21
-496 -367
-21 367 496
-497 -21
-497 53
21 -53 497
-498 -496
-498 -497
496 497 498
-499 21
-499 -376
-21 376 499
-500 -21
-500 54
21 -54 500
-501 -499
-501 -500
499 500 501
-502 21
-502 -385
-21 385 502
-503 -21
-503 55
21 -55 503
-504 -502
-504 -503
502 503 504
-505 21
-505 -394
-21 394 505
-506 -21
-506 56
21 -56 506
-507 -505
-507 -506
505 506 507
-508 21
-508 -403
-21 403 508
-509 1
-509 90
-1 -90 509
-510 -90
-510 91
90 -91 510
-511 -509
-511 -510
509 510 511
-512 2
-512 90
-2 -90 512
-513 -90
-513 -408
90 408 513
-514 -512
-514 -513
512 513 514
-515 3
-515 90
-3 -90 515
-516 -90
-516 -411
90 411 516
-517 -515
-517 -516
515 516 517
-518 4
-518 90
-4 -90 518
-519 -90
-519 -414
90 414 519
-520 -518
-520 -519
518 519 520
-521 5
-521 90
-5 -90 521
-522 -90
-522 -417
90 417 522
-523 -521
-523 -522
521 522 523
-524 6
-524 90
-6 -90 524
-525 -90
-525 -420
90 420 525
-526 -524
-526 -525
524 525 526
-527 7
-527 90
-7 -90 527
-528 -90
-528 -423
90 423 528
-529 -527
-529 -528
527 528 529
-530 8
-530 90
-8 -90 530
-531 -90
-531 -426
90 426 531
-532 -530
-532 -531
530 531 532
-533 9
-533 90
-9 -90 533
-534 -90
-534 -429
90 429 534
-535 -533
-535 -534
533 534 535
-536 10
-536 90
-10 -90 536
-537 -90
-537 -432
90 432 537
-538 -536
-538 -537
536 537 538
-539 11
-539 90
-11 -90 539
-540 -90
-540 -435
90 435 540
-541 -539
-541 -540
539 540 541
-542 12
-542 90
-12 -90 542
-543 -90
-543 -438
90 438 543
-544 -542
-544 -543
542 543 544
-545 13
-545 90
-13 -90 545
-546 -90
-546 -441
90 441 546
-547 -545
-547 -546
545 546 547
-548 14
-548 90
-14 -90 548
-549 -90
-549 -444
90 444 549
-550 -548
-550 -549
548 549 550
-551 15
-551 90
-15 -90 551
-552 -90
-552 -447
90 447 552
-553 -551
-553 -552
551 552 553
-554 16
-554 90
-16 -90 554
-555 -90
-555 -450
90 450 555
-556 -554
-556 -555
554 555 556
-557 17
-557 90
-17 -90 557
-558 -90
-558 -453
90 453 558
-559 -557
-559 -558
557 558 559
-560 18
-560 90
-18 -90 560
-561 -90
-561 -456
90 456 561
-562 -560
-562 -561
560 561 562
-563 19
-563 90
-19 -90 563
-564 -90
-564 -459
90 459 564
-565 -563
-565 -564
563 564 565
-566 20
-566 90
-20 -90 566
-567 -90
-567 -462
90 462 567
-568 -566
-568 -567
566 567 568
-569 -90
-569 -465
90 465 569
-570 -90
-570 -468
90 468 570
-571 -90
-571 -471
90 471 571
-572 -90
-572 -474
90 474 572
-573 -90
-573 -477
90 477 573
-574 -90
-574 -480
90 480 574
-575 -90
-575 -483
90 483 575
-576 -90
-576 -486
90 486 576
-577 -90
-577 -489
90 489 577
-578 -90
-578 -492
90 492 578
-579 -90
-579 -495
90 495 579
-580 -90
-580 -498
90 498 580
-581 -90
-581 -501
90 501 581
-582 -90
-582 -504
90 504 582
-583 -90
-583 -507
90 507 583
-584 -90
-584 508
90 -508 584
-585 -56
-585 405
56 -405 585
-586 21
-586 -585
-21 585 586
586
